5	15
14 50	11 56	4 54	9 39	0 57	1 52	2 49	10 52	6 48	5 41	8 52	13 51	3 45	12 55	7 46
14 49	2 49	3 49	12 50	0 47	9 51	1 51	7 48	11 56	6 43	13 50	10 45	8 48	4 54	5 50
6 56	12 55	9 49	11 42	10 42	14 49	5 48	8 47	2 58	7 55	0 55	3 50	4 53	1 48	13 44
1 46	9 42	3 45	11 52	12 48	8 44	0 51	4 42	5 51	13 50	14 52	2 50	6 50	7 45	10 42
10 44	0 51	8 56	12 56	9 53	5 49	14 52	7 50	2 40	1 50	6 51	4 53	13 52	11 45	3 58
